c 
c G(k,n,p) graph
c graph gen seed     : 633737
c number of vertices : 70
c max number of edges: 1225
c number of classes  : 2
c edge density       : 0.300000
c edge probability   : 0.600000
c data structure     : dense
c
c           Graph Stats
c number of vertices  : 70
c nonisolated vertices: 70
c number of edges     : 704
c edge density        : 0.291511
c max degree          : 28
c avg degree          : 20.11
c min degree          : 14
p col 70 704
e 1 2
e 1 3
e 1 4
e 1 6
e 1 7
e 1 10
e 1 14
e 1 24
e 1 29
e 1 30
e 1 47
e 1 49
e 1 52
e 1 58
e 1 60
e 1 61
e 1 63
e 1 67
e 2 11
e 2 15
e 2 18
e 2 21
e 2 22
e 2 25
e 2 28
e 2 37
e 2 43
e 2 44
e 2 46
e 2 48
e 2 53
e 2 54
e 2 59
e 2 66
e 2 68
e 3 11
e 3 15
e 3 18
e 3 20
e 3 21
e 3 22
e 3 25
e 3 28
e 3 35
e 3 37
e 3 39
e 3 42
e 3 46
e 3 51
e 3 54
e 3 59
e 3 66
e 3 69
e 4 11
e 4 15
e 4 20
e 4 21
e 4 22
e 4 23
e 4 25
e 4 26
e 4 28
e 4 33
e 4 35
e 4 36
e 4 39
e 4 42
e 4 51
e 4 53
e 4 54
e 4 59
e 4 66
e 5 6
e 5 8
e 5 10
e 5 24
e 5 27
e 5 29
e 5 30
e 5 31
e 5 32
e 5 34
e 5 40
e 5 41
e 5 45
e 5 47
e 5 50
e 5 52
e 5 56
e 5 57
e 5 60
e 5 65
e 6 11
e 6 13
e 6 20
e 6 22
e 6 25
e 6 26
e 6 28
e 6 33
e 6 35
e 6 36
e 6 37
e 6 39
e 6 42
e 6 43
e 6 44
e 6 46
e 6 48
e 6 54
e 6 62
e 6 64
e 6 66
e 6 68
e 6 69
e 7 13
e 7 18
e 7 20
e 7 21
e 7 26
e 7 39
e 7 42
e 7 43
e 7 44
e 7 46
e 7 48
e 7 51
e 7 53
e 7 54
e 7 59
e 7 62
e 7 64
e 7 66
e 7 68
e 7 69
e 8 13
e 8 21
e 8 23
e 8 33
e 8 35
e 8 36
e 8 37
e 8 42
e 8 44
e 8 46
e 8 48
e 8 59
e 8 64
e 8 66
e 8 68
e 8 69
e 9 20
e 9 22
e 9 23
e 9 28
e 9 33
e 9 35
e 9 36
e 9 37
e 9 38
e 9 43
e 9 44
e 9 48
e 9 51
e 9 53
e 9 62
e 9 64
e 10 13
e 10 15
e 10 18
e 10 20
e 10 22
e 10 25
e 10 35
e 10 37
e 10 38
e 10 39
e 10 43
e 10 44
e 10 46
e 10 48
e 10 51
e 10 54
e 10 62
e 10 64
e 10 66
e 10 68
e 11 12
e 11 14
e 11 17
e 11 19
e 11 24
e 11 30
e 11 31
e 11 32
e 11 34
e 11 41
e 11 47
e 11 49
e 11 50
e 11 55
e 11 57
e 11 58
e 11 61
e 11 65
e 11 70
e 12 13
e 12 18
e 12 21
e 12 23
e 12 35
e 12 36
e 12 37
e 12 39
e 12 42
e 12 46
e 12 48
e 12 51
e 12 53
e 12 54
e 12 62
e 12 66
e 12 69
e 13 14
e 13 16
e 13 29
e 13 32
e 13 47
e 13 50
e 13 52
e 13 55
e 13 58
e 13 60
e 13 61
e 13 67
e 13 70
e 14 15
e 14 18
e 14 21
e 14 23
e 14 28
e 14 33
e 14 36
e 14 37
e 14 42
e 14 43
e 14 44
e 14 48
e 14 51
e 14 53
e 14 54
e 14 62
e 14 69
e 15 17
e 15 24
e 15 29
e 15 31
e 15 40
e 15 45
e 15 49
e 15 50
e 15 55
e 15 56
e 15 57
e 15 60
e 15 61
e 15 63
e 15 67
e 15 70
e 16 18
e 16 20
e 16 21
e 16 25
e 16 26
e 16 35
e 16 36
e 16 37
e 16 42
e 16 43
e 16 44
e 16 48
e 16 51
e 16 53
e 16 62
e 16 64
e 16 68
e 16 69
e 17 21
e 17 22
e 17 23
e 17 26
e 17 33
e 17 36
e 17 37
e 17 38
e 17 39
e 17 42
e 17 44
e 17 46
e 17 51
e 17 53
e 17 59
e 17 62
e 17 64
e 17 68
e 17 69
e 18 24
e 18 29
e 18 30
e 18 31
e 18 45
e 18 47
e 18 49
e 18 52
e 18 56
e 18 57
e 18 58
e 18 61
e 19 22
e 19 23
e 19 25
e 19 26
e 19 28
e 19 33
e 19 35
e 19 39
e 19 42
e 19 46
e 19 48
e 19 51
e 19 53
e 19 59
e 19 64
e 19 66
e 20 30
e 20 32
e 20 34
e 20 40
e 20 45
e 20 49
e 20 52
e 20 57
e 20 58
e 20 60
e 20 61
e 20 65
e 20 67
e 20 70
e 21 24
e 21 30
e 21 32
e 21 34
e 21 41
e 21 45
e 21 47
e 21 49
e 21 50
e 21 52
e 21 56
e 21 57
e 21 60
e 21 61
e 22 24
e 22 27
e 22 29
e 22 31
e 22 32
e 22 34
e 22 40
e 22 41
e 22 47
e 22 49
e 22 50
e 22 52
e 22 57
e 22 63
e 22 70
e 23 32
e 23 45
e 23 47
e 23 57
e 23 60
e 23 67
e 23 70
e 24 25
e 24 26
e 24 33
e 24 37
e 24 39
e 24 42
e 24 44
e 24 46
e 24 48
e 24 54
e 24 59
e 24 62
e 24 64
e 24 68
e 25 29
e 25 31
e 25 34
e 25 47
e 25 50
e 25 56
e 25 60
e 25 63
e 25 67
e 26 30
e 26 31
e 26 41
e 26 47
e 26 52
e 26 55
e 26 61
e 26 63
e 26 65
e 26 70
e 27 28
e 27 35
e 27 36
e 27 37
e 27 38
e 27 39
e 27 43
e 27 44
e 27 46
e 27 51
e 27 54
e 27 59
e 27 64
e 27 66
e 27 68
e 28 29
e 28 32
e 28 34
e 28 40
e 28 47
e 28 49
e 28 50
e 28 58
e 28 63
e 28 67
e 28 70
e 29 33
e 29 35
e 29 36
e 29 38
e 29 39
e 29 46
e 29 51
e 29 53
e 29 54
e 29 66
e 30 35
e 30 36
e 30 37
e 30 38
e 30 39
e 30 44
e 30 46
e 30 48
e 30 51
e 30 53
e 30 54
e 30 59
e 30 62
e 30 68
e 30 69
e 31 33
e 31 36
e 31 37
e 31 38
e 31 39
e 31 44
e 31 48
e 31 53
e 31 54
e 31 62
e 31 64
e 31 69
e 32 33
e 32 36
e 32 37
e 32 39
e 32 42
e 32 44
e 32 46
e 32 48
e 32 51
e 32 53
e 32 62
e 32 66
e 32 68
e 33 34
e 33 47
e 33 50
e 33 56
e 33 57
e 33 60
e 33 63
e 33 65
e 33 67
e 33 70
e 34 36
e 34 39
e 34 42
e 34 43
e 34 44
e 34 48
e 34 51
e 34 53
e 34 54
e 34 59
e 34 66
e 34 68
e 35 41
e 35 49
e 35 50
e 35 52
e 35 57
e 35 58
e 35 63
e 35 65
e 35 67
e 35 70
e 36 45
e 36 47
e 36 50
e 36 55
e 36 56
e 36 58
e 36 60
e 36 61
e 36 63
e 36 67
e 37 40
e 37 41
e 37 45
e 37 49
e 37 55
e 37 58
e 37 60
e 37 61
e 37 63
e 37 70
e 38 45
e 38 47
e 38 49
e 38 50
e 38 52
e 38 58
e 38 60
e 38 70
e 39 41
e 39 45
e 39 49
e 39 50
e 39 52
e 39 55
e 39 56
e 39 58
e 39 60
e 39 63
e 39 65
e 39 67
e 39 70
e 40 42
e 40 43
e 40 46
e 40 48
e 40 51
e 40 53
e 40 54
e 40 59
e 40 66
e 40 68
e 40 69
e 41 42
e 41 43
e 41 48
e 41 51
e 41 54
e 41 59
e 41 62
e 41 64
e 41 68
e 42 45
e 42 49
e 42 55
e 42 57
e 42 63
e 42 65
e 42 67
e 42 70
e 43 45
e 43 49
e 43 52
e 43 56
e 43 60
e 43 61
e 43 65
e 43 67
e 44 45
e 44 47
e 44 50
e 44 52
e 44 55
e 44 58
e 44 61
e 44 65
e 44 70
e 45 46
e 45 53
e 45 66
e 45 68
e 45 69
e 46 47
e 46 49
e 46 50
e 46 55
e 46 65
e 47 48
e 47 51
e 47 62
e 47 64
e 47 69
e 48 49
e 48 50
e 48 52
e 48 55
e 48 58
e 48 60
e 49 53
e 49 54
e 49 59
e 49 64
e 50 53
e 50 54
e 50 64
e 50 66
e 50 68
e 51 56
e 51 58
e 51 60
e 51 65
e 52 53
e 52 54
e 52 59
e 52 64
e 52 66
e 52 68
e 53 56
e 53 57
e 53 58
e 53 60
e 53 61
e 53 65
e 54 55
e 54 57
e 54 58
e 54 60
e 54 61
e 54 63
e 54 65
e 54 70
e 55 59
e 55 62
e 55 68
e 55 69
e 56 59
e 56 62
e 56 66
e 56 68
e 57 64
e 57 66
e 57 68
e 57 69
e 58 59
e 58 68
e 59 60
e 59 61
e 59 63
e 59 65
e 59 67
e 59 70
e 60 64
e 60 66
e 60 68
e 60 69
e 61 64
e 61 66
e 61 68
e 61 69
e 62 63
e 62 67
e 63 64
e 63 68
e 63 69
e 64 65
e 64 67
e 66 67
e 66 70
e 67 69
e 68 70
